10
5
976458437
0
0
49 44 54 50 36
1
0
51 40 42 62 51
2
0
43 51 61 57 43
3
0
55 40 52 43 50
4
0
48 54 45 52 52
5
0
47 51 46 52 55
6
0
48 45 50 49 55
7
0
54 54 59 54 45
8
0
51 56 50 54 49
9
0
52 46 49 42 59
